# automatic create translation file using sstranslate


NumberOfSpecies    2
NumberofAtoms      14


%block ChemicalSpeciesLabel
 1   50   Sn
 2   8   O
%endblock ChemicalSpeciesLabel 

LatticeConstant 1.0000000000000000 Ang 

AtomicCoordinatesFormat  Fractional 


%block LatticeVectors
 4.8825173456094229   0.0000000000000000   0.0000000000000000 
 -0.1030956085204338   5.9063434591834136   0.0000000000000000 
 -0.4813886655832653   -0.4396115246052247   8.2121565829386238 
%endblock LatticeVectors


%block AtomicCoordinatesAndAtomicSpecies
  0.9986864322452220   0.5740100139635516   0.5044952069702617   1  
  0.4986851493334328   0.0737628909978980   0.5043848906936859   1  
  0.5246568636599420   0.7754056925528943   0.8296207062669652   1  
  0.4718189981014689   0.3725987491577953   0.1795103386031727   1  
  0.9759441409424738   0.8798748670389358   0.1792552482169469   1  
  0.0210205689000915   0.2677996815604331   0.8294081346626072   1  
  0.8076690187055036   0.2969791616879291   0.5986881961862380   2  
  0.1896048554542702   0.8508896587474766   0.4101868324475859   2  
  0.2909722211628321   0.3500268765220724   0.4065886420751212   2  
  0.7066128297670957   0.7980417514313274   0.6027610869727837   2  
  0.8033875140986098   0.5795650950217066   0.2717190055863909   2  
  0.3402951602373889   0.0711049570635467   0.7370756288306595   2  
  0.1932669539350087   0.5684780400110299   0.7373966413777993   2  
  0.6569693221551702   0.0769126644868123   0.2717394719474910   2  
%endblock AtomicCoordinatesAndAtomicSpecies
