lattice_vector   9.12230015   0.00000000   0.00000000
lattice_vector   0.00000000   8.77869987   0.00000000
lattice_vector   0.00000000   0.00000000   19.82996788
 
atom_frac   0.905100000   0.631400000   0.459950000   Pb
atom_frac   0.405100000   0.368600000   0.959950000   Pb
atom_frac   0.451700000   0.369200000   0.114700000   Pb
atom_frac   0.906200000   0.868600000   0.960070000   Pb
atom_frac   0.905100000   0.631400000   0.459950000   I
atom_frac   0.405100000   0.368600000   0.959950000   I
atom_frac   0.451700000   0.369200000   0.114700000   I
atom_frac   0.906200000   0.868600000   0.960070000   I
atom_frac   0.905100000   0.631400000   0.459950000   I
atom_frac   0.405100000   0.368600000   0.959950000   I
atom_frac   0.451700000   0.369200000   0.114700000   I
atom_frac   0.951700000   0.630800000   0.614700000   I
atom_frac   0.688100000   0.916500000   0.470400000   I
atom_frac   0.188100000   0.083500000   0.970400000   I
atom_frac   0.631000000   0.385700000   0.473900000   I
atom_frac   0.131000000   0.614300000   0.973900000   I
atom_frac   0.450900000   0.127200000   0.297600000   I
atom_frac   0.950900000   0.872800000   0.797600000   I
atom_frac   0.859700000   0.626400000   0.297500000   I
atom_frac   0.359700000   0.373600000   0.797500000   I
atom_frac   0.905100000   0.631400000   0.459950000   C
atom_frac   0.405100000   0.368600000   0.959950000   C
atom_frac   0.451700000   0.369200000   0.114700000   C
atom_frac   0.906200000   0.868600000   0.960070000   C
atom_frac   0.905100000   0.631400000   0.459950000   C
atom_frac   0.405100000   0.368600000   0.959950000   C
atom_frac   0.451700000   0.369200000   0.114700000   C
atom_frac   0.951700000   0.630800000   0.614700000   C
atom_frac   0.688100000   0.916500000   0.470400000   C
atom_frac   0.188100000   0.083500000   0.970400000   C
atom_frac   0.631000000   0.385700000   0.473900000   C
atom_frac   0.131000000   0.614300000   0.973900000   C
atom_frac   0.450900000   0.127200000   0.297600000   C
atom_frac   0.950900000   0.872800000   0.797600000   C
atom_frac   0.859700000   0.626400000   0.297500000   C
atom_frac   0.359700000   0.373600000   0.797500000   C
atom_frac   0.359900000   0.132100000   0.615200000   C
atom_frac   0.859900000   0.867900000   0.115200000   C
atom_frac   0.172200000   0.866400000   0.443300000   C
atom_frac   0.906200000   0.868600000   0.960070000   C
atom_frac   0.905100000   0.631400000   0.459950000   C
atom_frac   0.405100000   0.368600000   0.959950000   C
atom_frac   0.451700000   0.369200000   0.114700000   C
atom_frac   0.951700000   0.630800000   0.614700000   C
atom_frac   0.905100000   0.631400000   0.459950000   N
atom_frac   0.405100000   0.368600000   0.959950000   N
atom_frac   0.451700000   0.369200000   0.114700000   N
atom_frac   0.906200000   0.868600000   0.960070000   N
atom_frac   0.905100000   0.631400000   0.459950000   N
atom_frac   0.405100000   0.368600000   0.959950000   N
atom_frac   0.451700000   0.369200000   0.114700000   N
atom_frac   0.951700000   0.630800000   0.614700000   N
atom_frac   0.905100000   0.631400000   0.459950000   H
atom_frac   0.405100000   0.368600000   0.959950000   H
atom_frac   0.451700000   0.369200000   0.114700000   H
atom_frac   0.906200000   0.868600000   0.960070000   H
atom_frac   0.905100000   0.631400000   0.459950000   H
atom_frac   0.405100000   0.368600000   0.959950000   H
atom_frac   0.451700000   0.369200000   0.114700000   H
atom_frac   0.951700000   0.630800000   0.614700000   H
atom_frac   0.688100000   0.916500000   0.470400000   H
atom_frac   0.188100000   0.083500000   0.970400000   H
atom_frac   0.631000000   0.385700000   0.473900000   H
atom_frac   0.131000000   0.614300000   0.973900000   H
atom_frac   0.450900000   0.127200000   0.297600000   H
atom_frac   0.950900000   0.872800000   0.797600000   H
atom_frac   0.859700000   0.626400000   0.297500000   H
atom_frac   0.359700000   0.373600000   0.797500000   H
atom_frac   0.359900000   0.132100000   0.615200000   H
atom_frac   0.859900000   0.867900000   0.115200000   H
atom_frac   0.172200000   0.866400000   0.443300000   H
atom_frac   0.906200000   0.868600000   0.960070000   H
atom_frac   0.905100000   0.631400000   0.459950000   H
atom_frac   0.405100000   0.368600000   0.959950000   H
atom_frac   0.451700000   0.369200000   0.114700000   H
atom_frac   0.951700000   0.630800000   0.614700000   H
atom_frac   0.688100000   0.916500000   0.470400000   H
atom_frac   0.188100000   0.083500000   0.970400000   H
atom_frac   0.631000000   0.385700000   0.473900000   H
atom_frac   0.131000000   0.614300000   0.973900000   H
atom_frac   0.450900000   0.127200000   0.297600000   H
atom_frac   0.950900000   0.872800000   0.797600000   H
atom_frac   0.859700000   0.626400000   0.297500000   H
atom_frac   0.359700000   0.373600000   0.797500000   H
atom_frac   0.359900000   0.132100000   0.615200000   H
atom_frac   0.859900000   0.867900000   0.115200000   H
atom_frac   0.172200000   0.866400000   0.443300000   H
atom_frac   0.672200000   0.133600000   0.943300000   H
atom_frac   0.146100000   0.382200000   0.443800000   H
atom_frac   0.646100000   0.617800000   0.943800000   H
atom_frac   0.857000000   0.244000000   0.221000000   H
atom_frac   0.357000000   0.756000000   0.721000000   H
