# automatic create translation file using sstranslate


NumberOfSpecies    5
NumberofAtoms      92


%block ChemicalSpeciesLabel
 1   82   Pb
 2   53   I
 3   6   C
 4   7   N
 5   1   H
%endblock ChemicalSpeciesLabel 

LatticeConstant 1.0 Ang 

AtomicCoordinatesFormat  Fractional 


%block LatticeVectors
 9.1223001480   0.0000000000   0.0000000000 
 0.0000000000   8.7786998749   0.0000000000 
 0.0000000000   0.0000000000   19.8299678835 
%endblock LatticeVectors


%block AtomicCoordinatesAndAtomicSpecies
  0.905100000   0.631400000   0.459950000   1  
  0.405100000   0.368600000   0.959950000   1  
  0.451700000   0.369200000   0.114700000   1  
  0.906200000   0.868600000   0.960070000   1  
  0.905100000   0.631400000   0.459950000   2  
  0.405100000   0.368600000   0.959950000   2  
  0.451700000   0.369200000   0.114700000   2  
  0.906200000   0.868600000   0.960070000   2  
  0.905100000   0.631400000   0.459950000   2  
  0.405100000   0.368600000   0.959950000   2  
  0.451700000   0.369200000   0.114700000   2  
  0.951700000   0.630800000   0.614700000   2  
  0.688100000   0.916500000   0.470400000   2  
  0.188100000   0.083500000   0.970400000   2  
  0.631000000   0.385700000   0.473900000   2  
  0.131000000   0.614300000   0.973900000   2  
  0.450900000   0.127200000   0.297600000   2  
  0.950900000   0.872800000   0.797600000   2  
  0.859700000   0.626400000   0.297500000   2  
  0.359700000   0.373600000   0.797500000   2  
  0.905100000   0.631400000   0.459950000   3  
  0.405100000   0.368600000   0.959950000   3  
  0.451700000   0.369200000   0.114700000   3  
  0.906200000   0.868600000   0.960070000   3  
  0.905100000   0.631400000   0.459950000   3  
  0.405100000   0.368600000   0.959950000   3  
  0.451700000   0.369200000   0.114700000   3  
  0.951700000   0.630800000   0.614700000   3  
  0.688100000   0.916500000   0.470400000   3  
  0.188100000   0.083500000   0.970400000   3  
  0.631000000   0.385700000   0.473900000   3  
  0.131000000   0.614300000   0.973900000   3  
  0.450900000   0.127200000   0.297600000   3  
  0.950900000   0.872800000   0.797600000   3  
  0.859700000   0.626400000   0.297500000   3  
  0.359700000   0.373600000   0.797500000   3  
  0.359900000   0.132100000   0.615200000   3  
  0.859900000   0.867900000   0.115200000   3  
  0.172200000   0.866400000   0.443300000   3  
  0.906200000   0.868600000   0.960070000   3  
  0.905100000   0.631400000   0.459950000   3  
  0.405100000   0.368600000   0.959950000   3  
  0.451700000   0.369200000   0.114700000   3  
  0.951700000   0.630800000   0.614700000   3  
  0.905100000   0.631400000   0.459950000   4  
  0.405100000   0.368600000   0.959950000   4  
  0.451700000   0.369200000   0.114700000   4  
  0.906200000   0.868600000   0.960070000   4  
  0.905100000   0.631400000   0.459950000   4  
  0.405100000   0.368600000   0.959950000   4  
  0.451700000   0.369200000   0.114700000   4  
  0.951700000   0.630800000   0.614700000   4  
  0.905100000   0.631400000   0.459950000   5  
  0.405100000   0.368600000   0.959950000   5  
  0.451700000   0.369200000   0.114700000   5  
  0.906200000   0.868600000   0.960070000   5  
  0.905100000   0.631400000   0.459950000   5  
  0.405100000   0.368600000   0.959950000   5  
  0.451700000   0.369200000   0.114700000   5  
  0.951700000   0.630800000   0.614700000   5  
  0.688100000   0.916500000   0.470400000   5  
  0.188100000   0.083500000   0.970400000   5  
  0.631000000   0.385700000   0.473900000   5  
  0.131000000   0.614300000   0.973900000   5  
  0.450900000   0.127200000   0.297600000   5  
  0.950900000   0.872800000   0.797600000   5  
  0.859700000   0.626400000   0.297500000   5  
  0.359700000   0.373600000   0.797500000   5  
  0.359900000   0.132100000   0.615200000   5  
  0.859900000   0.867900000   0.115200000   5  
  0.172200000   0.866400000   0.443300000   5  
  0.906200000   0.868600000   0.960070000   5  
  0.905100000   0.631400000   0.459950000   5  
  0.405100000   0.368600000   0.959950000   5  
  0.451700000   0.369200000   0.114700000   5  
  0.951700000   0.630800000   0.614700000   5  
  0.688100000   0.916500000   0.470400000   5  
  0.188100000   0.083500000   0.970400000   5  
  0.631000000   0.385700000   0.473900000   5  
  0.131000000   0.614300000   0.973900000   5  
  0.450900000   0.127200000   0.297600000   5  
  0.950900000   0.872800000   0.797600000   5  
  0.859700000   0.626400000   0.297500000   5  
  0.359700000   0.373600000   0.797500000   5  
  0.359900000   0.132100000   0.615200000   5  
  0.859900000   0.867900000   0.115200000   5  
  0.172200000   0.866400000   0.443300000   5  
  0.672200000   0.133600000   0.943300000   5  
  0.146100000   0.382200000   0.443800000   5  
  0.646100000   0.617800000   0.943800000   5  
  0.857000000   0.244000000   0.221000000   5  
  0.357000000   0.756000000   0.721000000   5  
%endblock AtomicCoordinatesAndAtomicSpecies
